NAME : X_38_seed_123_id_14
TYPE : CVRP
DIMENSION : 275
EDGE_WEIGHT_TYPE : EUC_2D
CAPACITY : 10
NODE_COORD_SECTION
1	346	640
2	486	421
3	560	226
4	70	359
5	509	468
6	601	288
7	498	180
8	592	224
9	538	266
10	496	399
11	530	296
12	286	210
13	174	371
14	31	330
15	505	160
16	69	411
17	506	432
18	409	427
19	538	435
20	501	417
21	564	224
22	489	202
23	518	456
24	454	437
25	361	384
26	489	391
27	632	242
28	579	269
29	60	414
30	552	160
31	7	389
32	556	364
33	611	250
34	515	206
35	28	310
36	97	324
37	548	222
38	64	348
39	426	217
40	143	361
41	807	187
42	13	296
43	562	390
44	466	484
45	454	482
46	488	357
47	547	330
48	55	341
49	650	333
50	587	276
51	132	334
52	520	490
53	621	214
54	145	286
55	29	317
56	476	429
57	533	421
58	55	370
59	568	261
60	560	406
61	570	266
62	441	440
63	640	582
64	690	499
65	498	445
66	518	410
67	548	454
68	477	515
69	621	328
70	557	127
71	547	225
72	111	265
73	573	263
74	39	397
75	32	327
76	240	384
77	491	638
78	552	117
79	539	193
80	586	195
81	490	409
82	351	403
83	97	357
84	53	379
85	540	208
86	535	446
87	43	346
88	742	148
89	686	199
90	568	166
91	541	207
92	465	476
93	573	269
94	643	234
95	621	153
96	635	108
97	597	189
98	605	148
99	483	453
100	396	536
101	211	375
102	225	305
103	616	377
104	457	416
105	395	278
106	591	305
107	60	435
108	448	496
109	490	389
110	5	374
111	665	118
112	518	339
113	80	348
114	138	466
115	53	261
116	627	460
117	162	471
118	73	361
119	98	167
120	271	381
121	75	409
122	447	473
123	571	300
124	478	461
125	544	362
126	632	210
127	445	450
128	462	495
129	530	317
130	558	269
131	446	421
132	668	263
133	70	477
134	93	352
135	493	186
136	502	306
137	494	525
138	71	289
139	554	59
140	80	327
141	644	316
142	604	228
143	563	224
144	527	372
145	388	381
146	519	326
147	483	150
148	57	359
149	580	188
150	510	432
151	10	382
152	487	396
153	503	140
154	558	265
155	122	331
156	599	288
157	548	522
158	410	39
159	575	172
160	78	338
161	456	431
162	38	360
163	23	352
164	10	388
165	92	309
166	458	469
167	75	431
168	80	337
169	489	190
170	405	305
171	104	279
172	140	262
173	532	206
174	569	255
175	536	239
176	170	526
177	693	143
178	63	427
179	475	275
180	612	439
181	550	236
182	173	301
183	138	474
184	99	446
185	532	283
186	443	365
187	533	425
188	475	170
189	751	158
190	60	341
191	574	307
192	202	484
193	608	400
194	616	135
195	496	429
196	41	377
197	503	480
198	565	255
199	583	178
200	686	181
201	533	265
202	47	325
203	548	214
204	201	455
205	482	488
206	522	238
207	570	228
208	70	350
209	531	229
210	174	458
211	529	470
212	59	393
213	68	376
214	181	437
215	563	230
216	112	308
217	591	201
218	544	321
219	72	356
220	42	292
221	499	426
222	80	383
223	467	407
224	106	366
225	53	333
226	39	356
227	564	230
228	611	271
229	488	417
230	32	405
231	548	490
232	471	511
233	616	292
234	490	407
235	535	325
236	344	411
237	18	356
238	568	123
239	38	361
240	532	341
241	484	405
242	551	202
243	749	207
244	537	281
245	110	162
246	94	460
247	607	88
248	596	235
249	430	418
250	682	187
251	540	204
252	502	385
253	454	355
254	351	384
255	397	367
256	520	271
257	469	439
258	88	413
259	534	207
260	16	408
261	117	370
262	65	360
263	139	217
264	101	394
265	93	336
266	124	413
267	586	275
268	197	384
269	498	344
270	556	424
271	56	387
272	566	233
273	626	209
274	442	411
275	116	442
DEMAND_SECTION
1	0
2	1
3	1
4	1
5	1
6	1
7	1
8	1
9	1
10	1
11	1
12	1
13	1
14	1
15	1
16	1
17	1
18	1
19	1
20	1
21	1
22	1
23	1
24	1
25	1
26	1
27	1
28	1
29	1
30	1
31	1
32	1
33	1
34	1
35	1
36	1
37	1
38	1
39	1
40	1
41	1
42	1
43	1
44	1
45	1
46	1
47	1
48	1
49	1
50	1
51	1
52	1
53	1
54	1
55	1
56	1
57	1
58	1
59	1
60	1
61	1
62	1
63	1
64	1
65	1
66	1
67	1
68	1
69	1
70	1
71	1
72	1
73	1
74	1
75	1
76	1
77	1
78	1
79	1
80	1
81	1
82	1
83	1
84	1
85	1
86	1
87	1
88	1
89	1
90	1
91	1
92	1
93	1
94	1
95	1
96	1
97	1
98	1
99	1
100	1
101	1
102	1
103	1
104	1
105	1
106	1
107	1
108	1
109	1
110	1
111	1
112	1
113	1
114	1
115	1
116	1
117	1
118	1
119	1
120	1
121	1
122	1
123	1
124	1
125	1
126	1
127	1
128	1
129	1
130	1
131	1
132	1
133	1
134	1
135	1
136	1
137	1
138	1
139	1
140	1
141	1
142	1
143	1
144	1
145	1
146	1
147	1
148	1
149	1
150	1
151	1
152	1
153	1
154	1
155	1
156	1
157	1
158	1
159	1
160	1
161	1
162	1
163	1
164	1
165	1
166	1
167	1
168	1
169	1
170	1
171	1
172	1
173	1
174	1
175	1
176	1
177	1
178	1
179	1
180	1
181	1
182	1
183	1
184	1
185	1
186	1
187	1
188	1
189	1
190	1
191	1
192	1
193	1
194	1
195	1
196	1
197	1
198	1
199	1
200	1
201	1
202	1
203	1
204	1
205	1
206	1
207	1
208	1
209	1
210	1
211	1
212	1
213	1
214	1
215	1
216	1
217	1
218	1
219	1
220	1
221	1
222	1
223	1
224	1
225	1
226	1
227	1
228	1
229	1
230	1
231	1
232	1
233	1
234	1
235	1
236	1
237	1
238	1
239	1
240	1
241	1
242	1
243	1
244	1
245	1
246	1
247	1
248	1
249	1
250	1
251	1
252	1
253	1
254	1
255	1
256	1
257	1
258	1
259	1
260	1
261	1
262	1
263	1
264	1
265	1
266	1
267	1
268	1
269	1
270	1
271	1
272	1
273	1
274	1
275	1
DEPOT_SECTION
1
-1
EOF
